33D32945 STP File, STP Format Version 1.0

SECTION Comments
Name "edge_n11_d5_s25"
Problem "Euclidean Steiner Tree Problem"
Remark "Generated with STPGenerator. 5 dimensions."
END

SECTION Graph
Nodes 11
END

SECTION Coordinates
DDDDD 0 0.9393561920 0.9393561920 0.9393561920 0.9393561920 0.9393561920
DDDDD 1 0.8057392150 0.8057392150 0.8057392150 0.8057392150 0.8057392150
DDDDD 2 0.0423321780 0.0423321780 0.0423321780 0.0423321780 0.0423321780
DDDDD 3 0.9785602656 0.9785602656 0.9785602656 0.9785602656 0.9785602656
DDDDD 4 0.3255712615 0.3255712615 0.3255712615 0.3255712615 0.3255712615
DDDDD 5 0.9922046186 0.9922046186 0.9922046186 0.9922046186 0.9922046186
DDDDD 6 0.9965749998 0.9965749998 0.9965749998 0.9965749998 0.9965749998
DDDDD 7 0.8456901428 0.8456901428 0.8456901428 0.8456901428 0.8456901428
DDDDD 8 0.1036064635 0.1036064635 0.1036064635 0.1036064635 0.1036064635
DDDDD 9 0.5821549858 0.5821549858 0.5821549858 0.5821549858 0.5821549858
DDDDD 10 0.7011187615 0.7011187615 0.7011187615 0.7011187615 0.7011187615
END
